\ No. vars=100 No. cons=200 Density= 0.05 Range of costs= 1 to 10
\ Name of file is pk12w.lp
Maximize
obj:    6 x1 +  9 x2 +  2 x3 +  2 x4 +  9 x5 +  2 x6 +  5 x7 +  9 x8 +  4 x9 +  6 x10
 +  8 x11 +  6 x12 +  7 x13 +  5 x14 +  5 x15 +  5 x16 +  4 x17 + 10 x18 +  7 x19 +  6 x20
 +  9 x21 +  7 x22 +  9 x23 +  4 x24 +  1 x25 +  2 x26 +  3 x27 +  7 x28 +  3 x29 +  2 x30
 +  5 x31 +  7 x32 +  7 x33 +  5 x34 +  2 x35 +  8 x36 +  3 x37 +  6 x38 +  3 x39 +  6 x40
 +  8 x41 +  7 x42 +  9 x43 +  4 x44 +  5 x45 +  7 x46 +  6 x47 +  5 x48 +  8 x49 +  7 x50
 +  3 x51 +  2 x52 + 10 x53 +  5 x54 +  5 x55 +  9 x56 +  2 x57 +  9 x58 +  5 x59 +  4 x60
 +  4 x61 +  6 x62 +  2 x63 +  8 x64 +  8 x65 +  4 x66 + 10 x67 +  4 x68 +  2 x69 + 10 x70
 +  3 x71 +  9 x72 +  7 x73 +  2 x74 +  4 x75 +  1 x76 +  4 x77 +  2 x78 +  6 x79 +  5 x80
 +  7 x81 +  3 x82 +  5 x83 +  3 x84 +  8 x85 +  4 x86 +  5 x87 +  6 x88 +  5 x89 + 10 x90
 +  2 x91 +  2 x92 +  4 x93 +  3 x94 +  3 x95 +  2 x96 +  4 x97 +  1 x98 +  8 x99 + 10 x100
Subject To
c1:   x14 + x27 + x49 + x66 + x73 + x80  <= 1
c2:   x2 + x42 + x70  <= 1
c3:   x35  <= 1
c4:   x10 + x24 + x29 + x44 + x64  <= 1
c5:   x28 + x38 + x62  <= 1
c6:   x92 + x97  <= 1
c7:   x43 + x54 + x65 + x75 + x82  <= 1
c8:   x35 + x51 + x53 + x56 + x62 + x65 + x71 + x92  <= 1
c9:   x16 + x31 + x63 + x100  <= 1
c10:   x9 + x34 + x50 + x76 + x99  <= 1
c11:   x26 + x55 + x70 + x71 + x83 + x98  <= 1
c12:   x2 + x25 + x29 + x48 + x62 + x98 + x100  <= 1
c13:   x23 + x33 + x41 + x72 + x90 + x100  <= 1
c14:   x2 + x16 + x38 + x61 + x79 + x93  <= 1
c16:   x6 + x11 + x35 + x56 + x99  <= 1
c17:   x81  <= 1
c19:   x6 + x36 + x52 + x86 + x95 + x100  <= 1
c20:   x7 + x27 + x50 + x61 + x62 + x77  <= 1
c21:   x9 + x34 + x78 + x79  <= 1
c22:   x6 + x77 + x93  <= 1
c23:   x9 + x20 + x25 + x39 + x72 + x74  <= 1
c24:   x11 + x27 + x45 + x55 + x83 + x86 + x88 + x95  <= 1
c25:   x13 + x32 + x47 + x53 + x68 + x78 + x84 + x90  <= 1
c26:   x5 + x11 + x15 + x18 + x20 + x35 + x67 + x75 + x79 + x95  <= 1
c27:   x7 + x14 + x29 + x51 + x61 + x76 + x84 + x96  <= 1
c28:   x15 + x17 + x27 + x30 + x73  <= 1
c30:   x6 + x34 + x38  <= 1
c31:   x27 + x28 + x34  <= 1
c32:   x10 + x18 + x26 + x38 + x53  <= 1
c33:   x7 + x30 + x31 + x41 + x50 + x80 + x89  <= 1
c34:   x5 + x35 + x40 + x55 + x75  <= 1
c35:   x56 + x61 + x82 + x83  <= 1
c36:   x4 + x43 + x47 + x82 + x92 + x95 + x100  <= 1
c37:   x97  <= 1
c38:   x5 + x12 + x56 + x58 + x96  <= 1
c39:   x19 + x27 + x73  <= 1
c40:   x47 + x66 + x67  <= 1
c41:   x18 + x25 + x54 + x68 + x80 + x85 + x91  <= 1
c42:   x2 + x15 + x27 + x31 + x37 + x41 + x75  <= 1
c43:   x11 + x33 + x48 + x65 + x71 + x98  <= 1
c44:   x56 + x69  <= 1
c45:   x12 + x40  <= 1
c46:   x54  <= 1
c47:   x28 + x61 + x93  <= 1
c48:   x15 + x19 + x23 + x30 + x40 + x49 + x58 + x81  <= 1
c49:   x18 + x46  <= 1
c50:   x14 + x27 + x37 + x47 + x51 + x54 + x73 + x84  <= 1
c51:   x1 + x36 + x85  <= 1
c52:   x7 + x11 + x21 + x25 + x45 + x90  <= 1
c53:   x64 + x81 + x97  <= 1
c54:   x5 + x17 + x23 + x24 + x70 + x98  <= 1
c55:   x52 + x81 + x82 + x94 + x99  <= 1
c56:   x13 + x20  <= 1
c57:   x18 + x26 + x28 + x35 + x43 + x85 + x89  <= 1
c58:   x2 + x19 + x20 + x51 + x56 + x70 + x74 + x75  <= 1
c59:   x37 + x48 + x68 + x73 + x74  <= 1
c60:   x1 + x23 + x27 + x40 + x60 + x87  <= 1
c61:   x30 + x31 + x35 + x50 + x89  <= 1
c62:   x2 + x24 + x36 + x39 + x43 + x52 + x83 + x85  <= 1
c63:   x11 + x21 + x28 + x45 + x63 + x76 + x85  <= 1
c64:   x1 + x15 + x23 + x51 + x72  <= 1
c65:   x24 + x43 + x44 + x45 + x80  <= 1
c66:   x6 + x32 + x44 + x46 + x73 + x83 + x87 + x97  <= 1
c67:   x35 + x78 + x90 + x94  <= 1
c68:   x4 + x15 + x61 + x66 + x72 + x88  <= 1
c69:   x5 + x12 + x19 + x41 + x57 + x61 + x82 + x91 + x92 + x99  <= 1
c70:   x14 + x32 + x39 + x72 + x89  <= 1
c71:   x13 + x22 + x35 + x55 + x56 + x97  <= 1
c72:   x2 + x8 + x23 + x28 + x49 + x51 + x61 + x65 + x78 + x80
 + x97  <= 1
c73:   x6 + x14 + x34 + x53 + x84  <= 1
c74:   x3 + x4 + x40 + x51 + x65 + x70  <= 1
c75:   x17 + x49 + x91  <= 1
c76:   x1 + x23 + x28 + x36 + x57 + x92 + x94  <= 1
c77:   x49 + x72 + x95  <= 1
c78:   x1 + x17 + x47 + x61 + x92  <= 1
c79:   x37 + x42 + x65  <= 1
c80:   x7 + x21 + x31 + x54 + x62 + x66 + x72  <= 1
c81:   x12 + x39 + x47 + x79 + x90  <= 1
c82:   x13 + x80 + x84  <= 1
c83:   x3 + x38 + x45 + x50 + x57 + x85  <= 1
c84:   x13 + x17 + x35 + x36 + x43 + x53 + x65 + x69 + x72  <= 1
c85:   x22 + x24 + x52 + x79 + x89  <= 1
c86:   x66 + x83 + x97 + x98  <= 1
c87:   x12 + x16 + x96 + x99  <= 1
c88:   x10 + x11 + x14 + x20 + x39 + x47 + x52 + x69 + x70 + x80
 + x95  <= 1
c89:   x17 + x57 + x72 + x74 + x76  <= 1
c90:   x6 + x21 + x43 + x77 + x79 + x82 + x93  <= 1
c91:   x5 + x30 + x87  <= 1
c92:   x16 + x30 + x56  <= 1
c93:   x28 + x44 + x74 + x99  <= 1
c94:   x1 + x21 + x71  <= 1
c95:   x9 + x18 + x67 + x79 + x90 + x98  <= 1
c96:   x16 + x22 + x23 + x25 + x29 + x39 + x42 + x48 + x52 + x65
 + x69 + x80 + x81  <= 1
c97:   x13 + x22 + x39 + x80  <= 1
c98:   x3 + x23 + x24 + x63 + x91  <= 1
c99:   x45 + x55 + x89 + x93  <= 1
c100:   x29  <= 1
c101:   x8 + x11 + x21 + x50 + x81 + x96  <= 1
c102:   x34 + x44  <= 1
c103:   x43 + x48 + x73 + x98  <= 1
c104:   x4 + x6 + x23 + x39 + x41  <= 1
c105:   x3 + x14 + x15 + x24 + x30 + x53 + x57 + x60 + x89 + x93
 + x96  <= 1
c106:   x18 + x25 + x92  <= 1
c107:   x27 + x43 + x53 + x55 + x57 + x61 + x87 + x91  <= 1
c108:   x6 + x20 + x49 + x70 + x85 + x97  <= 1
c109:   x1 + x15 + x38 + x49  <= 1
c110:   x45 + x51 + x61  <= 1
c111:   x12 + x34 + x41 + x55 + x82  <= 1
c112:   x22 + x26 + x38 + x44 + x50  <= 1
c113:   x13 + x16 + x58 + x61 + x89 + x97 + x100  <= 1
c114:   x6 + x9 + x21 + x60 + x74 + x78 + x88  <= 1
c115:   x72 + x83  <= 1
c116:   x9 + x39 + x41 + x45 + x58 + x61 + x92  <= 1
c117:   x16 + x30 + x64 + x67 + x72 + x74 + x76  <= 1
c118:   x28 + x32 + x38 + x43 + x49 + x56 + x59 + x61 + x85 + x90  <= 1
c119:   x12 + x67 + x81 + x83  <= 1
c120:   x1 + x2 + x16 + x63 + x79 + x97  <= 1
c121:   x5 + x30 + x42 + x50 + x54 + x73  <= 1
c122:   x1 + x4 + x72 + x100  <= 1
c123:   x63  <= 1
c124:   x10 + x12 + x16 + x17 + x75 + x80 + x99  <= 1
c125:   x25 + x99  <= 1
c126:   x33 + x34 + x42 + x73  <= 1
c127:   x3 + x31 + x61 + x82  <= 1
c128:   x32 + x36  <= 1
c129:   x17 + x33 + x74 + x96  <= 1
c130:   x26 + x38 + x54 + x64 + x75  <= 1
c131:   x26 + x66 + x74  <= 1
c132:   x16 + x53 + x76 + x85 + x88  <= 1
c133:   x15 + x36 + x89 + x99  <= 1
c134:   x5 + x51  <= 1
c135:   x29 + x55  <= 1
c136:   x11 + x20 + x68 + x76 + x92  <= 1
c137:   x35 + x53 + x55 + x66 + x71 + x96  <= 1
c138:   x43 + x44 + x46 + x72 + x78 + x82 + x86  <= 1
c139:   x13 + x49  <= 1
c140:   x3 + x12 + x21 + x29 + x65 + x74 + x76 + x81 + x83 + x91  <= 1
c141:   x26 + x32 + x49 + x71 + x88 + x89  <= 1
c142:   x18 + x24 + x33 + x38 + x45 + x52 + x92  <= 1
c143:   x15 + x37 + x38 + x61  <= 1
c144:   x10 + x15 + x29 + x49  <= 1
c145:   x29 + x39 + x59 + x60 + x70 + x74  <= 1
c146:   x29 + x48 + x66 + x84 + x85 + x91  <= 1
c147:   x21 + x24 + x28 + x39 + x45  <= 1
c148:   x2 + x20 + x28 + x55 + x58  <= 1
c149:   x15 + x38 + x41 + x45 + x82 + x85 + x94  <= 1
c150:   x2 + x18 + x22 + x62 + x86 + x88 + x95  <= 1
c151:   x9 + x32 + x35 + x56 + x88  <= 1
c152:   x9 + x35 + x88 + x94  <= 1
c153:   x23 + x54 + x65 + x87  <= 1
c154:   x19 + x52 + x78  <= 1
c155:   x2 + x27 + x28 + x47 + x54 + x58 + x65 + x78  <= 1
c156:   x4 + x84  <= 1
c157:   x39 + x59 + x83  <= 1
c158:   x6 + x39 + x73 + x98  <= 1
c159:   x7 + x10 + x75  <= 1
c160:   x60 + x75 + x97 + x99  <= 1
c161:   x16 + x19 + x65 + x71 + x72 + x79  <= 1
c162:   x44 + x46 + x69 + x74 + x99  <= 1
c163:   x11 + x44 + x49 + x56 + x65 + x78 + x100  <= 1
c164:   x2 + x14 + x44 + x64 + x74  <= 1
c165:   x12 + x18 + x49 + x86  <= 1
c166:   x14 + x15 + x20 + x36 + x63 + x65 + x81  <= 1
c167:   x1  <= 1
c169:   x23 + x25 + x32 + x36  <= 1
c170:   x13 + x38 + x55 + x92  <= 1
c171:   x15 + x25 + x44 + x49 + x59 + x61 + x66 + x82 + x96  <= 1
c172:   x1 + x19 + x21 + x27 + x73 + x87  <= 1
c173:   x10 + x17 + x18 + x29 + x80 + x82 + x87 + x97  <= 1
c174:   x32 + x36 + x45 + x85 + x86 + x91 + x93  <= 1
c175:   x26 + x34 + x82 + x94  <= 1
c176:   x6 + x28 + x60 + x61 + x63 + x68 + x82 + x86 + x99  <= 1
c177:   x1 + x11 + x18 + x40  <= 1
c178:   x97  <= 1
c179:   x28 + x40 + x47 + x55 + x61 + x66 + x76 + x96  <= 1
c180:   x5 + x25 + x45 + x48 + x52  <= 1
c181:   x27 + x28 + x42 + x51 + x78 + x91  <= 1
c182:   x25 + x27 + x48 + x81 + x89 + x96  <= 1
c183:   x25 + x26 + x33 + x50 + x51 + x68 + x84  <= 1
c184:   x23 + x72 + x91  <= 1
c185:   x32 + x61 + x67 + x73 + x79 + x80 + x100  <= 1
c186:   x8 + x25 + x26 + x28 + x36 + x53 + x90  <= 1
c187:   x19 + x36 + x87  <= 1
c188:   x1 + x29 + x53 + x56 + x83  <= 1
c189:   x72 + x76 + x89  <= 1
c190:   x18 + x28 + x36 + x63 + x69 + x75 + x90  <= 1
c191:   x3 + x13 + x47 + x53 + x83  <= 1
c192:   x3 + x23 + x50  <= 1
c193:   x4 + x16 + x22 + x42 + x69 + x74  <= 1
c194:   x9 + x19 + x21 + x26 + x27 + x33 + x54 + x63 + x71 + x77
 + x83 + x93 + x98  <= 1
c195:   x11 + x30  <= 1
c196:   x15 + x25 + x31 + x69  <= 1
c197:   x22 + x23 + x57 + x61 + x67 + x71 + x88  <= 1
c198:   x8 + x14 + x30 + x44 + x52 + x55 + x59 + x73 + x78 + x79  <= 1
c199:   x16 + x35 + x44 + x55 + x62 + x66 + x99  <= 1
c200:   x20 + x49 + x95  <= 1
INTEGERS
 x1
 x2
 x3
 x4
 x5
 x6
 x7
 x8
 x9
 x10
 x11
 x12
 x13
 x14
 x15
 x16
 x17
 x18
 x19
 x20
 x21
 x22
 x23
 x24
 x25
 x26
 x27
 x28
 x29
 x30
 x31
 x32
 x33
 x34
 x35
 x36
 x37
 x38
 x39
 x40
 x41
 x42
 x43
 x44
 x45
 x46
 x47
 x48
 x49
 x50
 x51
 x52
 x53
 x54
 x55
 x56
 x57
 x58
 x59
 x60
 x61
 x62
 x63
 x64
 x65
 x66
 x67
 x68
 x69
 x70
 x71
 x72
 x73
 x74
 x75
 x76
 x77
 x78
 x79
 x80
 x81
 x82
 x83
 x84
 x85
 x86
 x87
 x88
 x89
 x90
 x91
 x92
 x93
 x94
 x95
 x96
 x97
 x98
 x99
 x100
End
